teams = 6;
boards = 5;
players = 30;
requests = 1;

singleRequests = 1;
doubleRequests = 0;
minRating = 1696;
maxRating = 2363;

Rating = [2363, 2353, 2353, 2299, 2292, 2283, 2055, 2046, 2041, 2040, 2037, 2028, 1910, 1908, 1907, 1902, 1902, 1896, 1824, 1812, 1812, 1812, 1810, 1802, 1715, 1714, 1708, 1704, 1703, 1696];

Board = [1, 1, 1, 1, 1, 1, 2, 2, 2, 2, 2, 2, 3, 3, 3, 3, 3, 3, 4, 4, 4, 4, 4, 4, 5, 5, 5, 5, 5, 5];

Requestees = {2, 4, 10, 11, 13, 15, 16, 18, 22, 23, 26};

SingleRequested = array2d(1..singleRequests,1..2,[23, 2]);

DoubleRequested = array2d(1..doubleRequests,1..2,[]);